# Solution for model r3_t9_m7_3 Batch Number: 1
# Finished Task: 6 / 9
# Makespan: 486.0, Total Distance: 174.0, Total Time: 0.1855
# R O S F Batch
0 0 11 0.0 0.0 -1
1 1 10 0.0 0.0 -1
2 2 8 0.0 0.0 -1
3 2 4 383.0 421.0 0
4 2 -1 465.0 486.0 0
5 -1 -1 -1.0 -1.0 0
6 -1 -1 -1.0 -1.0 0
7 -1 -1 -1.0 -1.0 0
8 2 3 355.0 383.0 0
9 1 -1 389.0 421.0 0
10 1 9 359.0 379.0 0
11 0 -1 408.0 429.0 0
